n_res = 5;
n_events = 22;
n_prec = 53;
source = 1;
sink = 22;
min_lvl = [2, -3, -9, 0, -8];
max_lvl = [5, 2, -1, 5, -1];
rr = [| 0, -1, 1, 2, 0, 0, -1, 0, 1, 0, 0, 0, 0, 2, 0, 0, -1, 0, 2, 0, -2, 0
      | 0, -1, 0, 1, 2, -2, -1, 0, 2, 0, 2, -2, 1, -1, -2, 1, -1, 0, 1, 1, 0, 0
      | 0, -1, 0, 2, -1, -2, -1, -2, -1, 0, -2, 0, 0, -1, 0, 2, 2, -2, 0, -2, 0, 0
      | 0, 0, 0, 0, -1, 0, 1, 0, 2, 1, 1, 0, 0, 0, -1, 0, 2, 0, 0, 0, 0, 0
      | 0, -1, 0, 0, -1, 2, -2, 1, -2, 0, -2, 0, -2, 1, -1, -1, -1, 1, 0, 1, 0, 0 |];
prec = [| 1, 0, 2
        | 1, 0, 5
        | 1, 0, 3
        | 1, 0, 4
        | 2, 11, 21
        | 2, 4, 17
        | 2, 3, 9
        | 3, -4, 7
        | 3, 2, 6
        | 4, 4, 13
        | 5, 0, 19
        | 5, 1, 12
        | 5, 2, 10
        | 6, -4, 21
        | 6, 5, 22
        | 7, 6, 22
        | 7, -3, 19
        | 8, -3, 9
        | 8, 10, 19
        | 8, 6, 17
        | 8, 0, 20
        | 9, 3, 8
        | 9, 9, 14
        | 9, 5, 19
        | 9, 4, 21
        | 10, 27, 15
        | 10, 14, 9
        | 10, -5, 5
        | 11, 19, 21
        | 12, -4, 19
        | 12, 3, 18
        | 13, -9, 14
        | 13, -1, 16
        | 14, 14, 17
        | 14, 2, 7
        | 14, -7, 13
        | 15, -34, 5
        | 15, 14, 8
        | 16, -17, 13
        | 16, 6, 11
        | 16, 2, 17
        | 16, 23, 12
        | 17, -22, 13
        | 17, -21, 14
        | 17, 3, 20
        | 18, 0, 11
        | 18, 18, 20
        | 19, 0, 20
        | 20, 7, 22
        | 20, -3, 19
        | 21, -28, 11
        | 21, 8, 22
        | 21, -28, 18 |];
